20
587 233 220
43 40 39
97 76 40
67 63 47
98 57 38
73 71 27
66 56 41
82 75 72
93 71 43
95 35 28
88 72 68
88 85 35
100 83 69
74 30 27
82 64 61
63 38 32
108 97 70
87 72 53
107 75 24
101 31 30
86 56 23
thpack7_16